NAME: X401-FSMFD
COMMENT: Generated by Uchoa, Pecin, Pessoa, Poggi, Subramanian, and Vidal (2013). Modified by Sadykov, Pessoa and Uchoa (2017). Converted to PyVRP's VRPLIB dialect.
TYPE: HFVRP
DIMENSION: 401
VEHICLES: 1200
EDGE_WEIGHT_TYPE: EUC_2D
NODE_COORD_SECTION
1	0	0
2	645	7
3	720	867
4	513	499
5	208	766
6	976	884
7	991	864
8	696	804
9	655	676
10	840	976
11	718	867
12	456	818
13	901	808
14	380	423
15	668	533
16	939	794
17	311	824
18	906	961
19	899	692
20	227	898
21	646	431
22	886	633
23	468	400
24	867	887
25	720	871
26	585	832
27	746	892
28	990	681
29	333	883
30	675	773
31	145	637
32	939	680
33	852	885
34	520	96
35	603	554
36	677	836
37	214	793
38	480	576
39	986	924
40	392	482
41	872	974
42	644	517
43	888	795
44	622	5
45	999	958
46	415	509
47	910	946
48	150	945
49	719	760
50	695	188
51	420	387
52	720	832
53	714	926
54	697	759
55	659	869
56	192	793
57	645	19
58	592	992
59	764	778
60	839	680
61	468	397
62	77	793
63	729	74
64	299	814
65	571	343
66	717	25
67	989	846
68	971	861
69	448	338
70	194	768
71	929	831
72	845	841
73	687	867
74	963	616
75	464	498
76	141	809
77	547	542
78	945	847
79	627	445
80	504	497
81	101	705
82	849	606
83	766	919
84	492	399
85	621	919
86	555	935
87	123	778
88	971	877
89	58	537
90	938	801
91	789	869
92	870	838
93	953	865
94	204	709
95	693	551
96	816	941
97	690	852
98	689	61
99	787	873
100	931	944
101	996	833
102	560	369
103	580	108
104	630	3
105	170	733
106	631	885
107	603	891
108	794	859
109	724	324
110	278	823
111	589	379
112	994	810
113	641	885
114	948	839
115	692	610
116	970	813
117	813	35
118	402	685
119	738	668
120	703	958
121	453	511
122	412	458
123	259	729
124	912	918
125	770	940
126	930	978
127	854	942
128	909	831
129	587	581
130	813	824
131	208	668
132	222	800
133	978	848
134	455	622
135	696	876
136	756	719
137	550	544
138	872	85
139	825	100
140	503	468
141	571	325
142	251	719
143	689	913
144	492	16
145	446	402
146	614	60
147	500	144
148	469	435
149	171	802
150	237	542
151	516	491
152	550	958
153	598	690
154	193	835
155	567	576
156	747	781
157	530	102
158	496	518
159	210	827
160	779	754
161	226	781
162	722	772
163	655	831
164	639	360
165	880	871
166	786	17
167	449	521
168	717	794
169	786	907
170	505	383
171	677	883
172	705	778
173	536	495
174	923	981
175	913	861
176	684	47
177	580	474
178	165	445
179	481	45
180	243	773
181	206	793
182	240	653
183	989	973
184	676	184
185	782	780
186	976	919
187	949	912
188	204	768
189	652	8
190	636	854
191	632	5
192	753	830
193	894	901
194	883	814
195	564	508
196	876	903
197	305	703
198	865	852
199	514	380
200	701	54
201	343	924
202	721	920
203	490	458
204	534	592
205	259	778
206	474	652
207	193	899
208	177	722
209	270	754
210	284	335
211	967	750
212	485	462
213	644	779
214	461	532
215	611	509
216	564	75
217	364	519
218	517	18
219	998	838
220	949	850
221	928	822
222	601	533
223	923	783
224	102	799
225	726	914
226	834	244
227	239	755
228	838	831
229	866	934
230	630	73
231	793	816
232	949	878
233	72	589
234	436	525
235	541	524
236	543	471
237	588	198
238	640	38
239	440	626
240	178	630
241	721	822
242	528	881
243	705	976
244	653	366
245	981	905
246	679	929
247	793	937
248	335	676
249	212	772
250	896	799
251	233	776
252	902	891
253	1000	799
254	328	612
255	169	693
256	45	654
257	868	917
258	152	749
259	233	943
260	316	594
261	408	600
262	945	853
263	509	590
264	843	915
265	471	500
266	775	770
267	303	689
268	579	103
269	935	853
270	659	857
271	426	546
272	932	920
273	996	850
274	237	642
275	840	94
276	706	671
277	190	756
278	163	677
279	734	882
280	403	754
281	669	187
282	947	869
283	783	848
284	747	889
285	710	131
286	851	992
287	157	888
288	964	968
289	550	923
290	320	759
291	881	806
292	941	885
293	333	404
294	990	838
295	171	759
296	647	47
297	296	835
298	655	146
299	243	669
300	475	535
301	197	879
302	565	50
303	985	834
304	784	970
305	546	65
306	144	788
307	870	661
308	508	521
309	669	386
310	845	859
311	268	693
312	860	854
313	768	700
314	196	769
315	245	941
316	411	529
317	535	56
318	327	947
319	789	831
320	145	726
321	708	76
322	808	838
323	657	144
324	686	66
325	514	578
326	894	933
327	909	814
328	579	57
329	938	972
330	435	803
331	730	857
332	819	787
333	861	742
334	251	785
335	497	40
336	969	748
337	990	860
338	701	863
339	195	682
340	610	942
341	103	703
342	802	833
343	260	726
344	221	735
345	777	692
346	984	821
347	912	928
348	475	554
349	959	862
350	646	31
351	991	886
352	735	812
353	707	889
354	333	824
355	824	954
356	197	855
357	487	514
358	570	729
359	653	40
360	850	803
361	630	47
362	563	493
363	216	737
364	689	858
365	688	876
366	883	783
367	334	767
368	847	890
369	966	862
370	524	554
371	181	847
372	886	743
373	241	760
374	995	751
375	663	926
376	660	593
377	807	731
378	124	687
379	282	720
380	704	58
381	950	824
382	825	869
383	795	770
384	150	720
385	664	408
386	222	837
387	930	938
388	313	960
389	819	911
390	906	880
391	180	749
392	914	961
393	357	506
394	649	780
395	975	865
396	687	737
397	258	723
398	543	546
399	660	70
400	650	873
401	541	495
DEMAND_SECTION
1	0
2	42
3	56
4	29
5	28
6	66
7	92
8	99
9	97
10	75
11	52
12	13
13	67
14	69
15	60
16	77
17	26
18	97
19	74
20	26
21	28
22	60
23	74
24	87
25	95
26	59
27	56
28	64
29	42
30	68
31	15
32	59
33	62
34	29
35	66
36	63
37	24
38	9
39	73
40	60
41	100
42	56
43	75
44	37
45	100
46	4
47	100
48	33
49	96
50	28
51	78
52	92
53	76
54	84
55	54
56	3
57	14
58	69
59	99
60	66
61	56
62	31
63	8
64	45
65	15
66	10
67	76
68	98
69	99
70	14
71	75
72	91
73	59
74	51
75	66
76	35
77	66
78	77
79	24
80	40
81	28
82	53
83	81
84	52
85	72
86	79
87	22
88	57
89	46
90	60
91	59
92	87
93	88
94	15
95	71
96	93
97	79
98	5
99	69
100	91
101	52
102	16
103	44
104	46
105	43
106	66
107	73
108	94
109	47
110	16
111	44
112	52
113	59
114	83
115	63
116	100
117	29
118	26
119	67
120	70
121	16
122	78
123	32
124	100
125	89
126	52
127	96
128	52
129	88
130	51
131	4
132	45
133	83
134	46
135	75
136	99
137	67
138	19
139	22
140	4
141	23
142	22
143	70
144	80
145	74
146	10
147	36
148	80
149	19
150	49
151	22
152	79
153	59
154	42
155	53
156	72
157	1
158	10
159	7
160	88
161	33
162	66
163	60
164	29
165	52
166	25
167	49
168	58
169	83
170	25
171	77
172	87
173	25
174	90
175	89
176	32
177	18
178	57
179	61
180	6
181	46
182	48
183	57
184	14
185	69
186	67
187	75
188	27
189	34
190	75
191	9
192	75
193	95
194	92
195	74
196	60
197	37
198	89
199	10
200	19
201	1
202	52
203	81
204	85
205	46
206	35
207	38
208	15
209	33
210	83
211	100
212	87
213	60
214	9
215	68
216	8
217	12
218	12
219	56
220	91
221	88
222	56
223	77
224	37
225	99
226	17
227	28
228	89
229	83
230	50
231	65
232	59
233	38
234	31
235	66
236	49
237	11
238	17
239	6
240	18
241	83
242	60
243	51
244	48
245	95
246	73
247	91
248	26
249	30
250	81
251	34
252	69
253	57
254	39
255	31
256	3
257	66
258	48
259	20
260	15
261	32
262	73
263	90
264	91
265	9
266	92
267	5
268	5
269	52
270	56
271	43
272	86
273	71
274	6
275	47
276	98
277	50
278	9
279	92
280	31
281	44
282	60
283	87
284	76
285	25
286	76
287	9
288	89
289	74
290	18
291	95
292	96
293	92
294	93
295	30
296	34
297	6
298	34
299	31
300	22
301	39
302	10
303	99
304	96
305	33
306	27
307	85
308	77
309	18
310	81
311	24
312	64
313	68
314	1
315	39
316	22
317	2
318	10
319	85
320	6
321	33
322	51
323	46
324	4
325	65
326	56
327	91
328	17
329	66
330	27
331	56
332	64
333	53
334	2
335	52
336	60
337	84
338	70
339	19
340	100
341	5
342	88
343	32
344	15
345	74
346	98
347	79
348	28
349	79
350	38
351	70
352	57
353	97
354	21
355	72
356	48
357	28
358	77
359	40
360	100
361	27
362	20
363	22
364	67
365	86
366	57
367	21
368	67
369	96
370	52
371	2
372	82
373	39
374	63
375	62
376	91
377	72
378	42
379	15
380	6
381	85
382	87
383	55
384	26
385	47
386	5
387	94
388	27
389	94
390	88
391	6
392	66
393	34
394	98
395	83
396	70
397	29
398	81
399	38
400	75
401	2
CAPACITY_SECTION
1	506
2	506
3	506
4	506
5	506
6	506
7	506
8	506
9	506
10	506
11	506
12	506
13	506
14	506
15	506
16	506
17	506
18	506
19	506
20	506
21	506
22	506
23	506
24	506
25	506
26	506
27	506
28	506
29	506
30	506
31	506
32	506
33	506
34	506
35	506
36	506
37	506
38	506
39	506
40	506
41	506
42	506
43	506
44	506
45	506
46	506
47	506
48	506
49	506
50	506
51	506
52	506
53	506
54	506
55	506
56	506
57	506
58	506
59	506
60	506
61	506
62	506
63	506
64	506
65	506
66	506
67	506
68	506
69	506
70	506
71	506
72	506
73	506
74	506
75	506
76	506
77	506
78	506
79	506
80	506
81	506
82	506
83	506
84	506
85	506
86	506
87	506
88	506
89	506
90	506
91	506
92	506
93	506
94	506
95	506
96	506
97	506
98	506
99	506
100	506
101	506
102	506
103	506
104	506
105	506
106	506
107	506
108	506
109	506
110	506
111	506
112	506
113	506
114	506
115	506
116	506
117	506
118	506
119	506
120	506
121	506
122	506
123	506
124	506
125	506
126	506
127	506
128	506
129	506
130	506
131	506
132	506
133	506
134	506
135	506
136	506
137	506
138	506
139	506
140	506
141	506
142	506
143	506
144	506
145	506
146	506
147	506
148	506
149	506
150	506
151	506
152	506
153	506
154	506
155	506
156	506
157	506
158	506
159	506
160	506
161	506
162	506
163	506
164	506
165	506
166	506
167	506
168	506
169	506
170	506
171	506
172	506
173	506
174	506
175	506
176	506
177	506
178	506
179	506
180	506
181	506
182	506
183	506
184	506
185	506
186	506
187	506
188	506
189	506
190	506
191	506
192	506
193	506
194	506
195	506
196	506
197	506
198	506
199	506
200	506
201	506
202	506
203	506
204	506
205	506
206	506
207	506
208	506
209	506
210	506
211	506
212	506
213	506
214	506
215	506
216	506
217	506
218	506
219	506
220	506
221	506
222	506
223	506
224	506
225	506
226	506
227	506
228	506
229	506
230	506
231	506
232	506
233	506
234	506
235	506
236	506
237	506
238	506
239	506
240	506
241	506
242	506
243	506
244	506
245	506
246	506
247	506
248	506
249	506
250	506
251	506
252	506
253	506
254	506
255	506
256	506
257	506
258	506
259	506
260	506
261	506
262	506
263	506
264	506
265	506
266	506
267	506
268	506
269	506
270	506
271	506
272	506
273	506
274	506
275	506
276	506
277	506
278	506
279	506
280	506
281	506
282	506
283	506
284	506
285	506
286	506
287	506
288	506
289	506
290	506
291	506
292	506
293	506
294	506
295	506
296	506
297	506
298	506
299	506
300	506
301	506
302	506
303	506
304	506
305	506
306	506
307	506
308	506
309	506
310	506
311	506
312	506
313	506
314	506
315	506
316	506
317	506
318	506
319	506
320	506
321	506
322	506
323	506
324	506
325	506
326	506
327	506
328	506
329	506
330	506
331	506
332	506
333	506
334	506
335	506
336	506
337	506
338	506
339	506
340	506
341	506
342	506
343	506
344	506
345	506
346	506
347	506
348	506
349	506
350	506
351	506
352	506
353	506
354	506
355	506
356	506
357	506
358	506
359	506
360	506
361	506
362	506
363	506
364	506
365	506
366	506
367	506
368	506
369	506
370	506
371	506
372	506
373	506
374	506
375	506
376	506
377	506
378	506
379	506
380	506
381	506
382	506
383	506
384	506
385	506
386	506
387	506
388	506
389	506
390	506
391	506
392	506
393	506
394	506
395	506
396	506
397	506
398	506
399	506
400	506
401	716
402	716
403	716
404	716
405	716
406	716
407	716
408	716
409	716
410	716
411	716
412	716
413	716
414	716
415	716
416	716
417	716
418	716
419	716
420	716
421	716
422	716
423	716
424	716
425	716
426	716
427	716
428	716
429	716
430	716
431	716
432	716
433	716
434	716
435	716
436	716
437	716
438	716
439	716
440	716
441	716
442	716
443	716
444	716
445	716
446	716
447	716
448	716
449	716
450	716
451	716
452	716
453	716
454	716
455	716
456	716
457	716
458	716
459	716
460	716
461	716
462	716
463	716
464	716
465	716
466	716
467	716
468	716
469	716
470	716
471	716
472	716
473	716
474	716
475	716
476	716
477	716
478	716
479	716
480	716
481	716
482	716
483	716
484	716
485	716
486	716
487	716
488	716
489	716
490	716
491	716
492	716
493	716
494	716
495	716
496	716
497	716
498	716
499	716
500	716
501	716
502	716
503	716
504	716
505	716
506	716
507	716
508	716
509	716
510	716
511	716
512	716
513	716
514	716
515	716
516	716
517	716
518	716
519	716
520	716
521	716
522	716
523	716
524	716
525	716
526	716
527	716
528	716
529	716
530	716
531	716
532	716
533	716
534	716
535	716
536	716
537	716
538	716
539	716
540	716
541	716
542	716
543	716
544	716
545	716
546	716
547	716
548	716
549	716
550	716
551	716
552	716
553	716
554	716
555	716
556	716
557	716
558	716
559	716
560	716
561	716
562	716
563	716
564	716
565	716
566	716
567	716
568	716
569	716
570	716
571	716
572	716
573	716
574	716
575	716
576	716
577	716
578	716
579	716
580	716
581	716
582	716
583	716
584	716
585	716
586	716
587	716
588	716
589	716
590	716
591	716
592	716
593	716
594	716
595	716
596	716
597	716
598	716
599	716
600	716
601	716
602	716
603	716
604	716
605	716
606	716
607	716
608	716
609	716
610	716
611	716
612	716
613	716
614	716
615	716
616	716
617	716
618	716
619	716
620	716
621	716
622	716
623	716
624	716
625	716
626	716
627	716
628	716
629	716
630	716
631	716
632	716
633	716
634	716
635	716
636	716
637	716
638	716
639	716
640	716
641	716
642	716
643	716
644	716
645	716
646	716
647	716
648	716
649	716
650	716
651	716
652	716
653	716
654	716
655	716
656	716
657	716
658	716
659	716
660	716
661	716
662	716
663	716
664	716
665	716
666	716
667	716
668	716
669	716
670	716
671	716
672	716
673	716
674	716
675	716
676	716
677	716
678	716
679	716
680	716
681	716
682	716
683	716
684	716
685	716
686	716
687	716
688	716
689	716
690	716
691	716
692	716
693	716
694	716
695	716
696	716
697	716
698	716
699	716
700	716
701	716
702	716
703	716
704	716
705	716
706	716
707	716
708	716
709	716
710	716
711	716
712	716
713	716
714	716
715	716
716	716
717	716
718	716
719	716
720	716
721	716
722	716
723	716
724	716
725	716
726	716
727	716
728	716
729	716
730	716
731	716
732	716
733	716
734	716
735	716
736	716
737	716
738	716
739	716
740	716
741	716
742	716
743	716
744	716
745	716
746	716
747	716
748	716
749	716
750	716
751	716
752	716
753	716
754	716
755	716
756	716
757	716
758	716
759	716
760	716
761	716
762	716
763	716
764	716
765	716
766	716
767	716
768	716
769	716
770	716
771	716
772	716
773	716
774	716
775	716
776	716
777	716
778	716
779	716
780	716
781	716
782	716
783	716
784	716
785	716
786	716
787	716
788	716
789	716
790	716
791	716
792	716
793	716
794	716
795	716
796	716
797	716
798	716
799	716
800	716
801	1013
802	1013
803	1013
804	1013
805	1013
806	1013
807	1013
808	1013
809	1013
810	1013
811	1013
812	1013
813	1013
814	1013
815	1013
816	1013
817	1013
818	1013
819	1013
820	1013
821	1013
822	1013
823	1013
824	1013
825	1013
826	1013
827	1013
828	1013
829	1013
830	1013
831	1013
832	1013
833	1013
834	1013
835	1013
836	1013
837	1013
838	1013
839	1013
840	1013
841	1013
842	1013
843	1013
844	1013
845	1013
846	1013
847	1013
848	1013
849	1013
850	1013
851	1013
852	1013
853	1013
854	1013
855	1013
856	1013
857	1013
858	1013
859	1013
860	1013
861	1013
862	1013
863	1013
864	1013
865	1013
866	1013
867	1013
868	1013
869	1013
870	1013
871	1013
872	1013
873	1013
874	1013
875	1013
876	1013
877	1013
878	1013
879	1013
880	1013
881	1013
882	1013
883	1013
884	1013
885	1013
886	1013
887	1013
888	1013
889	1013
890	1013
891	1013
892	1013
893	1013
894	1013
895	1013
896	1013
897	1013
898	1013
899	1013
900	1013
901	1013
902	1013
903	1013
904	1013
905	1013
906	1013
907	1013
908	1013
909	1013
910	1013
911	1013
912	1013
913	1013
914	1013
915	1013
916	1013
917	1013
918	1013
919	1013
920	1013
921	1013
922	1013
923	1013
924	1013
925	1013
926	1013
927	1013
928	1013
929	1013
930	1013
931	1013
932	1013
933	1013
934	1013
935	1013
936	1013
937	1013
938	1013
939	1013
940	1013
941	1013
942	1013
943	1013
944	1013
945	1013
946	1013
947	1013
948	1013
949	1013
950	1013
951	1013
952	1013
953	1013
954	1013
955	1013
956	1013
957	1013
958	1013
959	1013
960	1013
961	1013
962	1013
963	1013
964	1013
965	1013
966	1013
967	1013
968	1013
969	1013
970	1013
971	1013
972	1013
973	1013
974	1013
975	1013
976	1013
977	1013
978	1013
979	1013
980	1013
981	1013
982	1013
983	1013
984	1013
985	1013
986	1013
987	1013
988	1013
989	1013
990	1013
991	1013
992	1013
993	1013
994	1013
995	1013
996	1013
997	1013
998	1013
999	1013
1000	1013
1001	1013
1002	1013
1003	1013
1004	1013
1005	1013
1006	1013
1007	1013
1008	1013
1009	1013
1010	1013
1011	1013
1012	1013
1013	1013
1014	1013
1015	1013
1016	1013
1017	1013
1018	1013
1019	1013
1020	1013
1021	1013
1022	1013
1023	1013
1024	1013
1025	1013
1026	1013
1027	1013
1028	1013
1029	1013
1030	1013
1031	1013
1032	1013
1033	1013
1034	1013
1035	1013
1036	1013
1037	1013
1038	1013
1039	1013
1040	1013
1041	1013
1042	1013
1043	1013
1044	1013
1045	1013
1046	1013
1047	1013
1048	1013
1049	1013
1050	1013
1051	1013
1052	1013
1053	1013
1054	1013
1055	1013
1056	1013
1057	1013
1058	1013
1059	1013
1060	1013
1061	1013
1062	1013
1063	1013
1064	1013
1065	1013
1066	1013
1067	1013
1068	1013
1069	1013
1070	1013
1071	1013
1072	1013
1073	1013
1074	1013
1075	1013
1076	1013
1077	1013
1078	1013
1079	1013
1080	1013
1081	1013
1082	1013
1083	1013
1084	1013
1085	1013
1086	1013
1087	1013
1088	1013
1089	1013
1090	1013
1091	1013
1092	1013
1093	1013
1094	1013
1095	1013
1096	1013
1097	1013
1098	1013
1099	1013
1100	1013
1101	1013
1102	1013
1103	1013
1104	1013
1105	1013
1106	1013
1107	1013
1108	1013
1109	1013
1110	1013
1111	1013
1112	1013
1113	1013
1114	1013
1115	1013
1116	1013
1117	1013
1118	1013
1119	1013
1120	1013
1121	1013
1122	1013
1123	1013
1124	1013
1125	1013
1126	1013
1127	1013
1128	1013
1129	1013
1130	1013
1131	1013
1132	1013
1133	1013
1134	1013
1135	1013
1136	1013
1137	1013
1138	1013
1139	1013
1140	1013
1141	1013
1142	1013
1143	1013
1144	1013
1145	1013
1146	1013
1147	1013
1148	1013
1149	1013
1150	1013
1151	1013
1152	1013
1153	1013
1154	1013
1155	1013
1156	1013
1157	1013
1158	1013
1159	1013
1160	1013
1161	1013
1162	1013
1163	1013
1164	1013
1165	1013
1166	1013
1167	1013
1168	1013
1169	1013
1170	1013
1171	1013
1172	1013
1173	1013
1174	1013
1175	1013
1176	1013
1177	1013
1178	1013
1179	1013
1180	1013
1181	1013
1182	1013
1183	1013
1184	1013
1185	1013
1186	1013
1187	1013
1188	1013
1189	1013
1190	1013
1191	1013
1192	1013
1193	1013
1194	1013
1195	1013
1196	1013
1197	1013
1198	1013
1199	1013
1200	1013
VEHICLES_FIXED_COST_SECTION
1	51100
2	51100
3	51100
4	51100
5	51100
6	51100
7	51100
8	51100
9	51100
10	51100
11	51100
12	51100
13	51100
14	51100
15	51100
16	51100
17	51100
18	51100
19	51100
20	51100
21	51100
22	51100
23	51100
24	51100
25	51100
26	51100
27	51100
28	51100
29	51100
30	51100
31	51100
32	51100
33	51100
34	51100
35	51100
36	51100
37	51100
38	51100
39	51100
40	51100
41	51100
42	51100
43	51100
44	51100
45	51100
46	51100
47	51100
48	51100
49	51100
50	51100
51	51100
52	51100
53	51100
54	51100
55	51100
56	51100
57	51100
58	51100
59	51100
60	51100
61	51100
62	51100
63	51100
64	51100
65	51100
66	51100
67	51100
68	51100
69	51100
70	51100
71	51100
72	51100
73	51100
74	51100
75	51100
76	51100
77	51100
78	51100
79	51100
80	51100
81	51100
82	51100
83	51100
84	51100
85	51100
86	51100
87	51100
88	51100
89	51100
90	51100
91	51100
92	51100
93	51100
94	51100
95	51100
96	51100
97	51100
98	51100
99	51100
100	51100
101	51100
102	51100
103	51100
104	51100
105	51100
106	51100
107	51100
108	51100
109	51100
110	51100
111	51100
112	51100
113	51100
114	51100
115	51100
116	51100
117	51100
118	51100
119	51100
120	51100
121	51100
122	51100
123	51100
124	51100
125	51100
126	51100
127	51100
128	51100
129	51100
130	51100
131	51100
132	51100
133	51100
134	51100
135	51100
136	51100
137	51100
138	51100
139	51100
140	51100
141	51100
142	51100
143	51100
144	51100
145	51100
146	51100
147	51100
148	51100
149	51100
150	51100
151	51100
152	51100
153	51100
154	51100
155	51100
156	51100
157	51100
158	51100
159	51100
160	51100
161	51100
162	51100
163	51100
164	51100
165	51100
166	51100
167	51100
168	51100
169	51100
170	51100
171	51100
172	51100
173	51100
174	51100
175	51100
176	51100
177	51100
178	51100
179	51100
180	51100
181	51100
182	51100
183	51100
184	51100
185	51100
186	51100
187	51100
188	51100
189	51100
190	51100
191	51100
192	51100
193	51100
194	51100
195	51100
196	51100
197	51100
198	51100
199	51100
200	51100
201	51100
202	51100
203	51100
204	51100
205	51100
206	51100
207	51100
208	51100
209	51100
210	51100
211	51100
212	51100
213	51100
214	51100
215	51100
216	51100
217	51100
218	51100
219	51100
220	51100
221	51100
222	51100
223	51100
224	51100
225	51100
226	51100
227	51100
228	51100
229	51100
230	51100
231	51100
232	51100
233	51100
234	51100
235	51100
236	51100
237	51100
238	51100
239	51100
240	51100
241	51100
242	51100
243	51100
244	51100
245	51100
246	51100
247	51100
248	51100
249	51100
250	51100
251	51100
252	51100
253	51100
254	51100
255	51100
256	51100
257	51100
258	51100
259	51100
260	51100
261	51100
262	51100
263	51100
264	51100
265	51100
266	51100
267	51100
268	51100
269	51100
270	51100
271	51100
272	51100
273	51100
274	51100
275	51100
276	51100
277	51100
278	51100
279	51100
280	51100
281	51100
282	51100
283	51100
284	51100
285	51100
286	51100
287	51100
288	51100
289	51100
290	51100
291	51100
292	51100
293	51100
294	51100
295	51100
296	51100
297	51100
298	51100
299	51100
300	51100
301	51100
302	51100
303	51100
304	51100
305	51100
306	51100
307	51100
308	51100
309	51100
310	51100
311	51100
312	51100
313	51100
314	51100
315	51100
316	51100
317	51100
318	51100
319	51100
320	51100
321	51100
322	51100
323	51100
324	51100
325	51100
326	51100
327	51100
328	51100
329	51100
330	51100
331	51100
332	51100
333	51100
334	51100
335	51100
336	51100
337	51100
338	51100
339	51100
340	51100
341	51100
342	51100
343	51100
344	51100
345	51100
346	51100
347	51100
348	51100
349	51100
350	51100
351	51100
352	51100
353	51100
354	51100
355	51100
356	51100
357	51100
358	51100
359	51100
360	51100
361	51100
362	51100
363	51100
364	51100
365	51100
366	51100
367	51100
368	51100
369	51100
370	51100
371	51100
372	51100
373	51100
374	51100
375	51100
376	51100
377	51100
378	51100
379	51100
380	51100
381	51100
382	51100
383	51100
384	51100
385	51100
386	51100
387	51100
388	51100
389	51100
390	51100
391	51100
392	51100
393	51100
394	51100
395	51100
396	51100
397	51100
398	51100
399	51100
400	51100
401	78300
402	78300
403	78300
404	78300
405	78300
406	78300
407	78300
408	78300
409	78300
410	78300
411	78300
412	78300
413	78300
414	78300
415	78300
416	78300
417	78300
418	78300
419	78300
420	78300
421	78300
422	78300
423	78300
424	78300
425	78300
426	78300
427	78300
428	78300
429	78300
430	78300
431	78300
432	78300
433	78300
434	78300
435	78300
436	78300
437	78300
438	78300
439	78300
440	78300
441	78300
442	78300
443	78300
444	78300
445	78300
446	78300
447	78300
448	78300
449	78300
450	78300
451	78300
452	78300
453	78300
454	78300
455	78300
456	78300
457	78300
458	78300
459	78300
460	78300
461	78300
462	78300
463	78300
464	78300
465	78300
466	78300
467	78300
468	78300
469	78300
470	78300
471	78300
472	78300
473	78300
474	78300
475	78300
476	78300
477	78300
478	78300
479	78300
480	78300
481	78300
482	78300
483	78300
484	78300
485	78300
486	78300
487	78300
488	78300
489	78300
490	78300
491	78300
492	78300
493	78300
494	78300
495	78300
496	78300
497	78300
498	78300
499	78300
500	78300
501	78300
502	78300
503	78300
504	78300
505	78300
506	78300
507	78300
508	78300
509	78300
510	78300
511	78300
512	78300
513	78300
514	78300
515	78300
516	78300
517	78300
518	78300
519	78300
520	78300
521	78300
522	78300
523	78300
524	78300
525	78300
526	78300
527	78300
528	78300
529	78300
530	78300
531	78300
532	78300
533	78300
534	78300
535	78300
536	78300
537	78300
538	78300
539	78300
540	78300
541	78300
542	78300
543	78300
544	78300
545	78300
546	78300
547	78300
548	78300
549	78300
550	78300
551	78300
552	78300
553	78300
554	78300
555	78300
556	78300
557	78300
558	78300
559	78300
560	78300
561	78300
562	78300
563	78300
564	78300
565	78300
566	78300
567	78300
568	78300
569	78300
570	78300
571	78300
572	78300
573	78300
574	78300
575	78300
576	78300
577	78300
578	78300
579	78300
580	78300
581	78300
582	78300
583	78300
584	78300
585	78300
586	78300
587	78300
588	78300
589	78300
590	78300
591	78300
592	78300
593	78300
594	78300
595	78300
596	78300
597	78300
598	78300
599	78300
600	78300
601	78300
602	78300
603	78300
604	78300
605	78300
606	78300
607	78300
608	78300
609	78300
610	78300
611	78300
612	78300
613	78300
614	78300
615	78300
616	78300
617	78300
618	78300
619	78300
620	78300
621	78300
622	78300
623	78300
624	78300
625	78300
626	78300
627	78300
628	78300
629	78300
630	78300
631	78300
632	78300
633	78300
634	78300
635	78300
636	78300
637	78300
638	78300
639	78300
640	78300
641	78300
642	78300
643	78300
644	78300
645	78300
646	78300
647	78300
648	78300
649	78300
650	78300
651	78300
652	78300
653	78300
654	78300
655	78300
656	78300
657	78300
658	78300
659	78300
660	78300
661	78300
662	78300
663	78300
664	78300
665	78300
666	78300
667	78300
668	78300
669	78300
670	78300
671	78300
672	78300
673	78300
674	78300
675	78300
676	78300
677	78300
678	78300
679	78300
680	78300
681	78300
682	78300
683	78300
684	78300
685	78300
686	78300
687	78300
688	78300
689	78300
690	78300
691	78300
692	78300
693	78300
694	78300
695	78300
696	78300
697	78300
698	78300
699	78300
700	78300
701	78300
702	78300
703	78300
704	78300
705	78300
706	78300
707	78300
708	78300
709	78300
710	78300
711	78300
712	78300
713	78300
714	78300
715	78300
716	78300
717	78300
718	78300
719	78300
720	78300
721	78300
722	78300
723	78300
724	78300
725	78300
726	78300
727	78300
728	78300
729	78300
730	78300
731	78300
732	78300
733	78300
734	78300
735	78300
736	78300
737	78300
738	78300
739	78300
740	78300
741	78300
742	78300
743	78300
744	78300
745	78300
746	78300
747	78300
748	78300
749	78300
750	78300
751	78300
752	78300
753	78300
754	78300
755	78300
756	78300
757	78300
758	78300
759	78300
760	78300
761	78300
762	78300
763	78300
764	78300
765	78300
766	78300
767	78300
768	78300
769	78300
770	78300
771	78300
772	78300
773	78300
774	78300
775	78300
776	78300
777	78300
778	78300
779	78300
780	78300
781	78300
782	78300
783	78300
784	78300
785	78300
786	78300
787	78300
788	78300
789	78300
790	78300
791	78300
792	78300
793	78300
794	78300
795	78300
796	78300
797	78300
798	78300
799	78300
800	78300
801	119100
802	119100
803	119100
804	119100
805	119100
806	119100
807	119100
808	119100
809	119100
810	119100
811	119100
812	119100
813	119100
814	119100
815	119100
816	119100
817	119100
818	119100
819	119100
820	119100
821	119100
822	119100
823	119100
824	119100
825	119100
826	119100
827	119100
828	119100
829	119100
830	119100
831	119100
832	119100
833	119100
834	119100
835	119100
836	119100
837	119100
838	119100
839	119100
840	119100
841	119100
842	119100
843	119100
844	119100
845	119100
846	119100
847	119100
848	119100
849	119100
850	119100
851	119100
852	119100
853	119100
854	119100
855	119100
856	119100
857	119100
858	119100
859	119100
860	119100
861	119100
862	119100
863	119100
864	119100
865	119100
866	119100
867	119100
868	119100
869	119100
870	119100
871	119100
872	119100
873	119100
874	119100
875	119100
876	119100
877	119100
878	119100
879	119100
880	119100
881	119100
882	119100
883	119100
884	119100
885	119100
886	119100
887	119100
888	119100
889	119100
890	119100
891	119100
892	119100
893	119100
894	119100
895	119100
896	119100
897	119100
898	119100
899	119100
900	119100
901	119100
902	119100
903	119100
904	119100
905	119100
906	119100
907	119100
908	119100
909	119100
910	119100
911	119100
912	119100
913	119100
914	119100
915	119100
916	119100
917	119100
918	119100
919	119100
920	119100
921	119100
922	119100
923	119100
924	119100
925	119100
926	119100
927	119100
928	119100
929	119100
930	119100
931	119100
932	119100
933	119100
934	119100
935	119100
936	119100
937	119100
938	119100
939	119100
940	119100
941	119100
942	119100
943	119100
944	119100
945	119100
946	119100
947	119100
948	119100
949	119100
950	119100
951	119100
952	119100
953	119100
954	119100
955	119100
956	119100
957	119100
958	119100
959	119100
960	119100
961	119100
962	119100
963	119100
964	119100
965	119100
966	119100
967	119100
968	119100
969	119100
970	119100
971	119100
972	119100
973	119100
974	119100
975	119100
976	119100
977	119100
978	119100
979	119100
980	119100
981	119100
982	119100
983	119100
984	119100
985	119100
986	119100
987	119100
988	119100
989	119100
990	119100
991	119100
992	119100
993	119100
994	119100
995	119100
996	119100
997	119100
998	119100
999	119100
1000	119100
1001	119100
1002	119100
1003	119100
1004	119100
1005	119100
1006	119100
1007	119100
1008	119100
1009	119100
1010	119100
1011	119100
1012	119100
1013	119100
1014	119100
1015	119100
1016	119100
1017	119100
1018	119100
1019	119100
1020	119100
1021	119100
1022	119100
1023	119100
1024	119100
1025	119100
1026	119100
1027	119100
1028	119100
1029	119100
1030	119100
1031	119100
1032	119100
1033	119100
1034	119100
1035	119100
1036	119100
1037	119100
1038	119100
1039	119100
1040	119100
1041	119100
1042	119100
1043	119100
1044	119100
1045	119100
1046	119100
1047	119100
1048	119100
1049	119100
1050	119100
1051	119100
1052	119100
1053	119100
1054	119100
1055	119100
1056	119100
1057	119100
1058	119100
1059	119100
1060	119100
1061	119100
1062	119100
1063	119100
1064	119100
1065	119100
1066	119100
1067	119100
1068	119100
1069	119100
1070	119100
1071	119100
1072	119100
1073	119100
1074	119100
1075	119100
1076	119100
1077	119100
1078	119100
1079	119100
1080	119100
1081	119100
1082	119100
1083	119100
1084	119100
1085	119100
1086	119100
1087	119100
1088	119100
1089	119100
1090	119100
1091	119100
1092	119100
1093	119100
1094	119100
1095	119100
1096	119100
1097	119100
1098	119100
1099	119100
1100	119100
1101	119100
1102	119100
1103	119100
1104	119100
1105	119100
1106	119100
1107	119100
1108	119100
1109	119100
1110	119100
1111	119100
1112	119100
1113	119100
1114	119100
1115	119100
1116	119100
1117	119100
1118	119100
1119	119100
1120	119100
1121	119100
1122	119100
1123	119100
1124	119100
1125	119100
1126	119100
1127	119100
1128	119100
1129	119100
1130	119100
1131	119100
1132	119100
1133	119100
1134	119100
1135	119100
1136	119100
1137	119100
1138	119100
1139	119100
1140	119100
1141	119100
1142	119100
1143	119100
1144	119100
1145	119100
1146	119100
1147	119100
1148	119100
1149	119100
1150	119100
1151	119100
1152	119100
1153	119100
1154	119100
1155	119100
1156	119100
1157	119100
1158	119100
1159	119100
1160	119100
1161	119100
1162	119100
1163	119100
1164	119100
1165	119100
1166	119100
1167	119100
1168	119100
1169	119100
1170	119100
1171	119100
1172	119100
1173	119100
1174	119100
1175	119100
1176	119100
1177	119100
1178	119100
1179	119100
1180	119100
1181	119100
1182	119100
1183	119100
1184	119100
1185	119100
1186	119100
1187	119100
1188	119100
1189	119100
1190	119100
1191	119100
1192	119100
1193	119100
1194	119100
1195	119100
1196	119100
1197	119100
1198	119100
1199	119100
1200	119100
VEHICLES_UNIT_DISTANCE_COST_SECTION
1	71
2	71
3	71
4	71
5	71
6	71
7	71
8	71
9	71
10	71
11	71
12	71
13	71
14	71
15	71
16	71
17	71
18	71
19	71
20	71
21	71
22	71
23	71
24	71
25	71
26	71
27	71
28	71
29	71
30	71
31	71
32	71
33	71
34	71
35	71
36	71
37	71
38	71
39	71
40	71
41	71
42	71
43	71
44	71
45	71
46	71
47	71
48	71
49	71
50	71
51	71
52	71
53	71
54	71
55	71
56	71
57	71
58	71
59	71
60	71
61	71
62	71
63	71
64	71
65	71
66	71
67	71
68	71
69	71
70	71
71	71
72	71
73	71
74	71
75	71
76	71
77	71
78	71
79	71
80	71
81	71
82	71
83	71
84	71
85	71
86	71
87	71
88	71
89	71
90	71
91	71
92	71
93	71
94	71
95	71
96	71
97	71
98	71
99	71
100	71
101	71
102	71
103	71
104	71
105	71
106	71
107	71
108	71
109	71
110	71
111	71
112	71
113	71
114	71
115	71
116	71
117	71
118	71
119	71
120	71
121	71
122	71
123	71
124	71
125	71
126	71
127	71
128	71
129	71
130	71
131	71
132	71
133	71
134	71
135	71
136	71
137	71
138	71
139	71
140	71
141	71
142	71
143	71
144	71
145	71
146	71
147	71
148	71
149	71
150	71
151	71
152	71
153	71
154	71
155	71
156	71
157	71
158	71
159	71
160	71
161	71
162	71
163	71
164	71
165	71
166	71
167	71
168	71
169	71
170	71
171	71
172	71
173	71
174	71
175	71
176	71
177	71
178	71
179	71
180	71
181	71
182	71
183	71
184	71
185	71
186	71
187	71
188	71
189	71
190	71
191	71
192	71
193	71
194	71
195	71
196	71
197	71
198	71
199	71
200	71
201	71
202	71
203	71
204	71
205	71
206	71
207	71
208	71
209	71
210	71
211	71
212	71
213	71
214	71
215	71
216	71
217	71
218	71
219	71
220	71
221	71
222	71
223	71
224	71
225	71
226	71
227	71
228	71
229	71
230	71
231	71
232	71
233	71
234	71
235	71
236	71
237	71
238	71
239	71
240	71
241	71
242	71
243	71
244	71
245	71
246	71
247	71
248	71
249	71
250	71
251	71
252	71
253	71
254	71
255	71
256	71
257	71
258	71
259	71
260	71
261	71
262	71
263	71
264	71
265	71
266	71
267	71
268	71
269	71
270	71
271	71
272	71
273	71
274	71
275	71
276	71
277	71
278	71
279	71
280	71
281	71
282	71
283	71
284	71
285	71
286	71
287	71
288	71
289	71
290	71
291	71
292	71
293	71
294	71
295	71
296	71
297	71
298	71
299	71
300	71
301	71
302	71
303	71
304	71
305	71
306	71
307	71
308	71
309	71
310	71
311	71
312	71
313	71
314	71
315	71
316	71
317	71
318	71
319	71
320	71
321	71
322	71
323	71
324	71
325	71
326	71
327	71
328	71
329	71
330	71
331	71
332	71
333	71
334	71
335	71
336	71
337	71
338	71
339	71
340	71
341	71
342	71
343	71
344	71
345	71
346	71
347	71
348	71
349	71
350	71
351	71
352	71
353	71
354	71
355	71
356	71
357	71
358	71
359	71
360	71
361	71
362	71
363	71
364	71
365	71
366	71
367	71
368	71
369	71
370	71
371	71
372	71
373	71
374	71
375	71
376	71
377	71
378	71
379	71
380	71
381	71
382	71
383	71
384	71
385	71
386	71
387	71
388	71
389	71
390	71
391	71
392	71
393	71
394	71
395	71
396	71
397	71
398	71
399	71
400	71
401	100
402	100
403	100
404	100
405	100
406	100
407	100
408	100
409	100
410	100
411	100
412	100
413	100
414	100
415	100
416	100
417	100
418	100
419	100
420	100
421	100
422	100
423	100
424	100
425	100
426	100
427	100
428	100
429	100
430	100
431	100
432	100
433	100
434	100
435	100
436	100
437	100
438	100
439	100
440	100
441	100
442	100
443	100
444	100
445	100
446	100
447	100
448	100
449	100
450	100
451	100
452	100
453	100
454	100
455	100
456	100
457	100
458	100
459	100
460	100
461	100
462	100
463	100
464	100
465	100
466	100
467	100
468	100
469	100
470	100
471	100
472	100
473	100
474	100
475	100
476	100
477	100
478	100
479	100
480	100
481	100
482	100
483	100
484	100
485	100
486	100
487	100
488	100
489	100
490	100
491	100
492	100
493	100
494	100
495	100
496	100
497	100
498	100
499	100
500	100
501	100
502	100
503	100
504	100
505	100
506	100
507	100
508	100
509	100
510	100
511	100
512	100
513	100
514	100
515	100
516	100
517	100
518	100
519	100
520	100
521	100
522	100
523	100
524	100
525	100
526	100
527	100
528	100
529	100
530	100
531	100
532	100
533	100
534	100
535	100
536	100
537	100
538	100
539	100
540	100
541	100
542	100
543	100
544	100
545	100
546	100
547	100
548	100
549	100
550	100
551	100
552	100
553	100
554	100
555	100
556	100
557	100
558	100
559	100
560	100
561	100
562	100
563	100
564	100
565	100
566	100
567	100
568	100
569	100
570	100
571	100
572	100
573	100
574	100
575	100
576	100
577	100
578	100
579	100
580	100
581	100
582	100
583	100
584	100
585	100
586	100
587	100
588	100
589	100
590	100
591	100
592	100
593	100
594	100
595	100
596	100
597	100
598	100
599	100
600	100
601	100
602	100
603	100
604	100
605	100
606	100
607	100
608	100
609	100
610	100
611	100
612	100
613	100
614	100
615	100
616	100
617	100
618	100
619	100
620	100
621	100
622	100
623	100
624	100
625	100
626	100
627	100
628	100
629	100
630	100
631	100
632	100
633	100
634	100
635	100
636	100
637	100
638	100
639	100
640	100
641	100
642	100
643	100
644	100
645	100
646	100
647	100
648	100
649	100
650	100
651	100
652	100
653	100
654	100
655	100
656	100
657	100
658	100
659	100
660	100
661	100
662	100
663	100
664	100
665	100
666	100
667	100
668	100
669	100
670	100
671	100
672	100
673	100
674	100
675	100
676	100
677	100
678	100
679	100
680	100
681	100
682	100
683	100
684	100
685	100
686	100
687	100
688	100
689	100
690	100
691	100
692	100
693	100
694	100
695	100
696	100
697	100
698	100
699	100
700	100
701	100
702	100
703	100
704	100
705	100
706	100
707	100
708	100
709	100
710	100
711	100
712	100
713	100
714	100
715	100
716	100
717	100
718	100
719	100
720	100
721	100
722	100
723	100
724	100
725	100
726	100
727	100
728	100
729	100
730	100
731	100
732	100
733	100
734	100
735	100
736	100
737	100
738	100
739	100
740	100
741	100
742	100
743	100
744	100
745	100
746	100
747	100
748	100
749	100
750	100
751	100
752	100
753	100
754	100
755	100
756	100
757	100
758	100
759	100
760	100
761	100
762	100
763	100
764	100
765	100
766	100
767	100
768	100
769	100
770	100
771	100
772	100
773	100
774	100
775	100
776	100
777	100
778	100
779	100
780	100
781	100
782	100
783	100
784	100
785	100
786	100
787	100
788	100
789	100
790	100
791	100
792	100
793	100
794	100
795	100
796	100
797	100
798	100
799	100
800	100
801	141
802	141
803	141
804	141
805	141
806	141
807	141
808	141
809	141
810	141
811	141
812	141
813	141
814	141
815	141
816	141
817	141
818	141
819	141
820	141
821	141
822	141
823	141
824	141
825	141
826	141
827	141
828	141
829	141
830	141
831	141
832	141
833	141
834	141
835	141
836	141
837	141
838	141
839	141
840	141
841	141
842	141
843	141
844	141
845	141
846	141
847	141
848	141
849	141
850	141
851	141
852	141
853	141
854	141
855	141
856	141
857	141
858	141
859	141
860	141
861	141
862	141
863	141
864	141
865	141
866	141
867	141
868	141
869	141
870	141
871	141
872	141
873	141
874	141
875	141
876	141
877	141
878	141
879	141
880	141
881	141
882	141
883	141
884	141
885	141
886	141
887	141
888	141
889	141
890	141
891	141
892	141
893	141
894	141
895	141
896	141
897	141
898	141
899	141
900	141
901	141
902	141
903	141
904	141
905	141
906	141
907	141
908	141
909	141
910	141
911	141
912	141
913	141
914	141
915	141
916	141
917	141
918	141
919	141
920	141
921	141
922	141
923	141
924	141
925	141
926	141
927	141
928	141
929	141
930	141
931	141
932	141
933	141
934	141
935	141
936	141
937	141
938	141
939	141
940	141
941	141
942	141
943	141
944	141
945	141
946	141
947	141
948	141
949	141
950	141
951	141
952	141
953	141
954	141
955	141
956	141
957	141
958	141
959	141
960	141
961	141
962	141
963	141
964	141
965	141
966	141
967	141
968	141
969	141
970	141
971	141
972	141
973	141
974	141
975	141
976	141
977	141
978	141
979	141
980	141
981	141
982	141
983	141
984	141
985	141
986	141
987	141
988	141
989	141
990	141
991	141
992	141
993	141
994	141
995	141
996	141
997	141
998	141
999	141
1000	141
1001	141
1002	141
1003	141
1004	141
1005	141
1006	141
1007	141
1008	141
1009	141
1010	141
1011	141
1012	141
1013	141
1014	141
1015	141
1016	141
1017	141
1018	141
1019	141
1020	141
1021	141
1022	141
1023	141
1024	141
1025	141
1026	141
1027	141
1028	141
1029	141
1030	141
1031	141
1032	141
1033	141
1034	141
1035	141
1036	141
1037	141
1038	141
1039	141
1040	141
1041	141
1042	141
1043	141
1044	141
1045	141
1046	141
1047	141
1048	141
1049	141
1050	141
1051	141
1052	141
1053	141
1054	141
1055	141
1056	141
1057	141
1058	141
1059	141
1060	141
1061	141
1062	141
1063	141
1064	141
1065	141
1066	141
1067	141
1068	141
1069	141
1070	141
1071	141
1072	141
1073	141
1074	141
1075	141
1076	141
1077	141
1078	141
1079	141
1080	141
1081	141
1082	141
1083	141
1084	141
1085	141
1086	141
1087	141
1088	141
1089	141
1090	141
1091	141
1092	141
1093	141
1094	141
1095	141
1096	141
1097	141
1098	141
1099	141
1100	141
1101	141
1102	141
1103	141
1104	141
1105	141
1106	141
1107	141
1108	141
1109	141
1110	141
1111	141
1112	141
1113	141
1114	141
1115	141
1116	141
1117	141
1118	141
1119	141
1120	141
1121	141
1122	141
1123	141
1124	141
1125	141
1126	141
1127	141
1128	141
1129	141
1130	141
1131	141
1132	141
1133	141
1134	141
1135	141
1136	141
1137	141
1138	141
1139	141
1140	141
1141	141
1142	141
1143	141
1144	141
1145	141
1146	141
1147	141
1148	141
1149	141
1150	141
1151	141
1152	141
1153	141
1154	141
1155	141
1156	141
1157	141
1158	141
1159	141
1160	141
1161	141
1162	141
1163	141
1164	141
1165	141
1166	141
1167	141
1168	141
1169	141
1170	141
1171	141
1172	141
1173	141
1174	141
1175	141
1176	141
1177	141
1178	141
1179	141
1180	141
1181	141
1182	141
1183	141
1184	141
1185	141
1186	141
1187	141
1188	141
1189	141
1190	141
1191	141
1192	141
1193	141
1194	141
1195	141
1196	141
1197	141
1198	141
1199	141
1200	141
DEPOT_SECTION
1
EOF
